(declare-fun temp13918_1 () (_ BitVec 64))
(declare-fun var81157 () (_ BitVec 64))
(declare-fun ARGNAME_n_fft_NAMEEND () (_ BitVec 64))
(declare-fun temp13918_2 () (_ BitVec 64))
(declare-fun var1050945 () (_ BitVec 64))
(declare-fun temp13918_3 () (_ BitVec 64))
(declare-fun var67312 () (_ BitVec 64))
(declare-fun temp13918_4 () (_ BitVec 64))
(declare-fun var81838 () (_ BitVec 64))
(declare-fun temp13918_5 () (_ BitVec 64))
(declare-fun var81839 () (_ BitVec 64))
(declare-fun temp13918_6 () (_ BitVec 64))
(declare-fun var82185 () (_ BitVec 64))
(declare-fun ARGNAME_hop_length_NAMEEND () (_ BitVec 64))
(declare-fun var82186 () (_ BitVec 64))
(declare-fun null () (_ BitVec 64))
(declare-fun temp13918_7 () (_ BitVec 64))
(declare-fun var82187 () (_ BitVec 64))
(declare-fun k!0 () Bool)
(declare-fun var82356 () (_ BitVec 64))
(declare-fun temp13918_8 () (_ BitVec 64))
(declare-fun temp13918_9 () (_ BitVec 64))
(declare-fun ARGNAME_window_NAMEEND_DIM () (_ BitVec 64))
(declare-fun var82528 () (_ BitVec 64))
(declare-fun temp13918_10 () (_ BitVec 64))
(declare-fun temp13918_11 () (_ BitVec 64))
(declare-fun var65913 () (_ BitVec 64))
(declare-fun temp13918_12 () (_ BitVec 64))
(declare-fun temp13918_13 () (_ BitVec 64))
(declare-fun ARGNAME_window_NAMEEND_DIMSIZE
             ()
             (Array (_ BitVec 64) (_ BitVec 64)))
(declare-fun temp13918_14 () (_ BitVec 64))
(declare-fun temp13918_15 () (_ BitVec 64))
(declare-fun temp13918_16 () (_ BitVec 64))
(declare-fun temp13918_17 () (_ BitVec 64))
(declare-fun temp13918_18 () (_ BitVec 64))
(declare-fun temp13918_19 () (_ BitVec 64))
(declare-fun temp13918_20 () (_ BitVec 64))
(declare-fun temp13918_21 () (_ BitVec 64))
(declare-fun temp13918_22 () (_ BitVec 64))
(declare-fun temp13918_23 () (_ BitVec 64))
(declare-fun temp13918_24 () (_ BitVec 64))
(declare-fun temp13918_25 () (_ BitVec 64))
(declare-fun temp13918_26 () (_ BitVec 64))
(declare-fun temp13918_27 () (_ BitVec 64))
(declare-fun temp13918_28 () (_ BitVec 64))
(declare-fun temp13918_29 () (_ BitVec 64))
(declare-fun temp13918_31 () (_ BitVec 64))
(declare-fun temp13918_30 () (_ BitVec 64))
(declare-fun temp13918_32 () (_ BitVec 64))
(declare-fun temp13918_33 () (_ BitVec 64))
(declare-fun var82530 () (_ BitVec 64))
(declare-fun var82531 () (_ BitVec 64))
(declare-fun temp13918_34 () (_ BitVec 64))
(declare-fun var82728 () (_ BitVec 64))
(declare-fun temp13918_35 () (_ BitVec 64))
(declare-fun var1914351 () (_ BitVec 64))
(declare-fun temp13918_36 () (_ BitVec 64))
(declare-fun var2115797 () (_ BitVec 64))
(declare-fun temp13918_37 () (_ BitVec 64))
(declare-fun var2115798 () (_ BitVec 64))
(declare-fun temp13918_39 () (_ BitVec 64))
(declare-fun temp13918_38 () (_ BitVec 64))
(declare-fun temp13918_40 () (_ BitVec 64))
(declare-fun var2628020 () (_ BitVec 64))
(declare-fun temp13918_41 () (_ BitVec 64))
(declare-fun temp13918_42 () (_ BitVec 64))
(declare-fun ARGNAME_normalized_NAMEEND () (_ BitVec 64))
(declare-fun var82862 () (_ BitVec 64))
(declare-fun temp13918_43 () (_ BitVec 64))
(declare-fun ARGNAME_return_complex_NAMEEND () (_ BitVec 64))
(declare-fun var82911 () (_ BitVec 64))
(declare-fun var3740376 () (_ BitVec 64))
(declare-fun temp13918_44 () (_ BitVec 64))
(declare-fun var3740377 () (_ BitVec 64))
(declare-fun temp13918_45 () (_ BitVec 64))
(declare-fun var69143 () (_ BitVec 64))
(declare-fun temp13918_47 () (_ BitVec 64))
(declare-fun temp13918_46 () (_ BitVec 64))
(declare-fun temp13918_49 () (_ BitVec 64))
(declare-fun temp13918_48 () (_ BitVec 64))
(declare-fun temp13918_51 () (_ BitVec 64))
(declare-fun temp13918_50 () (_ BitVec 64))
(declare-fun temp13918_52 () (_ BitVec 64))
(declare-fun var4212949 () (_ BitVec 64))
(declare-fun var4212950 () (_ BitVec 64))
(declare-fun temp13918_54 () (_ BitVec 64))
(declare-fun temp13918_53 () (_ BitVec 64))
(declare-fun temp13918_56 () (_ BitVec 64))
(declare-fun temp13918_55 () (_ BitVec 64))
(declare-fun temp13918_58 () (_ BitVec 64))
(declare-fun temp13918_57 () (_ BitVec 64))
(declare-fun temp13918_60 () (_ BitVec 64))
(declare-fun temp13918_59 () (_ BitVec 64))
(declare-fun temp13918_62 () (_ BitVec 64))
(declare-fun temp13918_61 () (_ BitVec 64))
(declare-fun temp13918_64 () (_ BitVec 64))
(declare-fun temp13918_63 () (_ BitVec 64))
(declare-fun var4868391 () (_ BitVec 64))
(declare-fun temp13918_65 () (_ BitVec 64))
(declare-fun var4983962 () (_ BitVec 64))
(declare-fun temp13918_67 () (_ BitVec 64))
(declare-fun temp13918_66 () (_ BitVec 64))
(declare-fun temp13918_69 () (_ BitVec 64))
(declare-fun temp13918_68 () (_ BitVec 64))
(declare-fun var5453295 () (_ BitVec 64))
(declare-fun temp13918_71 () (_ BitVec 64))
(declare-fun temp13918_70 () (_ BitVec 64))
(declare-fun temp13918_73 () (_ BitVec 64))
(declare-fun temp13918_72 () (_ BitVec 64))
(declare-fun temp13918_75 () (_ BitVec 64))
(declare-fun temp13918_74 () (_ BitVec 64))
(declare-fun temp13918_77 () (_ BitVec 64))
(declare-fun temp13918_76 () (_ BitVec 64))
(declare-fun temp13918_79 () (_ BitVec 64))
(declare-fun temp13918_78 () (_ BitVec 64))
(declare-fun temp13918_81 () (_ BitVec 64))
(declare-fun temp13918_80 () (_ BitVec 64))
(declare-fun var6375719 () (_ BitVec 64))
(declare-fun temp13918_82 () (_ BitVec 64))
(declare-fun ARGNAME_center_NAMEEND () (_ BitVec 64))
(declare-fun var83534 () (_ BitVec 64))
(declare-fun temp13918_83 () (_ BitVec 64))
(declare-fun temp13918_84 () (_ BitVec 64))
(declare-fun var83537 () (_ BitVec 64))
(declare-fun var83540 () (_ BitVec 64))
(declare-fun temp13918_85 () (_ BitVec 64))
(declare-fun var6506834 () (_ BitVec 64))
(declare-fun temp13918_86 () (_ BitVec 64))
(declare-fun temp13918_87 () (_ BitVec 64))
(declare-fun var6506839 () (_ BitVec 64))
(declare-fun var6506845 () (_ BitVec 64))
(declare-fun var6506816 () (_ BitVec 64))
(declare-fun var83557 () (_ BitVec 64))
(declare-fun var6753268 () (_ BitVec 64))
(declare-fun temp13918_88 () (_ BitVec 64))
(declare-fun var6753272 () (_ BitVec 64))
(declare-fun temp13918_89 () (_ BitVec 64))
(declare-fun var6753322 () (_ BitVec 64))
(declare-fun temp13918_90 () (_ BitVec 64))
(declare-fun var7670772 () (_ BitVec 64))
(declare-fun temp13918_91 () (_ BitVec 64))
(declare-fun var7670776 () (_ BitVec 64))
(declare-fun temp13918_92 () (_ BitVec 64))
(declare-fun var7670814 () (_ BitVec 64))
(declare-fun temp13918_93 () (_ BitVec 64))
(declare-fun var7670826 () (_ BitVec 64))
(declare-fun temp13918_94 () (_ BitVec 64))
(declare-fun temp13918_95 () (_ BitVec 64))
(declare-fun temp13918_96 () (_ BitVec 64))
(declare-fun var8866087 () (_ BitVec 64))
(declare-fun var83931 () (_ BitVec 64))
(declare-fun var83975 () (_ BitVec 64))
(declare-fun temp13918_97 () (_ BitVec 64))
(declare-fun var9178266 () (_ BitVec 64))
(assert (= temp13918_1 #x0000000000000002))
(assert (= var81157 (bvashr ARGNAME_n_fft_NAMEEND temp13918_1)))
(assert (= temp13918_2 #x0000000000000000))
(assert (= var1050945 temp13918_2))
(assert (= temp13918_3 #xffffffffffffffff))
(assert (= var67312 temp13918_3))
(assert (= temp13918_4 #x0000000000000002))
(assert (= var81838 (bvsdiv ARGNAME_n_fft_NAMEEND temp13918_4)))
(assert (= temp13918_5 #x0000000000000001))
(assert (= var81839 (bvadd var81838 temp13918_5)))
(assert (= temp13918_6 #x0000000000000001))
(assert (= var82185
   (ite (bvslt ARGNAME_hop_length_NAMEEND temp13918_6)
        #x0000000000000001
        #x0000000000000000)))
(assert (= var82186
   (ite (bvsgt ARGNAME_hop_length_NAMEEND null)
        #x0000000000000001
        #x0000000000000000)))
(assert (= var82187 (bvor var82185 var82186)))
(assert (= temp13918_7 #x0000000000000000))
(assert (= var82187 temp13918_7))
(assert (= var82356
   (ite (bvsgt null ARGNAME_n_fft_NAMEEND)
        #x0000000000000001
        #x0000000000000000)))
(assert (= temp13918_8 #x0000000000000000))
(assert (= var82356 temp13918_8))
(assert (= temp13918_9 #x0000000000000001))
(assert (= var82528
   (ite (= ARGNAME_window_NAMEEND_DIM temp13918_9)
        #x0000000000000001
        #x0000000000000000)))
(assert (= temp13918_10 #x0000000000000001))
(assert (= var82528 temp13918_10))
(assert (= temp13918_11 #x0000000000000000))
(assert (= var65913 temp13918_11))
(assert (= temp13918_12 #x0000000000000000))
(assert (= temp13918_13 temp13918_12))
(assert (= temp13918_14 (select ARGNAME_window_NAMEEND_DIMSIZE temp13918_13)))
(assert (= temp13918_15 #x0000000000000001))
(assert (= temp13918_16 temp13918_15))
(assert (= temp13918_17 (select ARGNAME_window_NAMEEND_DIMSIZE temp13918_16)))
(assert (= temp13918_18 #x0000000000000002))
(assert (= temp13918_19 temp13918_18))
(assert (= temp13918_20 (select ARGNAME_window_NAMEEND_DIMSIZE temp13918_19)))
(assert (= temp13918_21 #x0000000000000003))
(assert (= temp13918_22 temp13918_21))
(assert (= temp13918_23 (select ARGNAME_window_NAMEEND_DIMSIZE temp13918_22)))
(assert (= temp13918_24 #x0000000000000004))
(assert (= temp13918_25 temp13918_24))
(assert (= temp13918_26 (select ARGNAME_window_NAMEEND_DIMSIZE temp13918_25)))
(assert (= temp13918_27 #x0000000000000005))
(assert (= temp13918_28 temp13918_27))
(assert (= temp13918_29 (select ARGNAME_window_NAMEEND_DIMSIZE temp13918_28)))
(assert (= temp13918_31 #x0000000000000000))
(assert (= temp13918_30
   (ite (bvslt var65913 temp13918_31)
        (bvadd ARGNAME_window_NAMEEND_DIM var65913)
        var65913)))
(assert (= temp13918_32 temp13918_30))
(assert (= temp13918_33 (select ARGNAME_window_NAMEEND_DIMSIZE temp13918_32)))
(assert (= var82530 temp13918_33))
(assert (bvslt temp13918_30 ARGNAME_window_NAMEEND_DIM))
(assert (= var82531 (ite (= var82530 null) #x0000000000000001 #x0000000000000000)))
(assert (= temp13918_34 #x0000000000000001))
(assert (= var82531 temp13918_34))
(assert (= var82728
   (ite (= ARGNAME_n_fft_NAMEEND null) #x0000000000000001 #x0000000000000000)))
(assert (= temp13918_35 #x0000000000000001))
(assert (= var82728 temp13918_35))
(assert (= var1914351 var65913))
(assert (= temp13918_36 #x0000000000000001))
(assert (= var2115797 temp13918_36))
(assert (= temp13918_37 #x0000000000000002))
(assert (= var2115798 temp13918_37))
(assert (= temp13918_39 #x0000000000000000))
(assert (= temp13918_38 temp13918_39))
(assert (= temp13918_40 #x0000000000000000))
(assert (= var2628020 temp13918_40))
(assert (= temp13918_41 #x0000000000000001))
(assert (= temp13918_42 #x0000000000000002))
(assert (= var82862
   (ite (= ARGNAME_normalized_NAMEEND #x0000000000000001)
        temp13918_41
        temp13918_42)))
(assert (= temp13918_43 #x0000000000000001))
(assert (= ARGNAME_return_complex_NAMEEND temp13918_43))
(assert (= var82911 var82862))
(assert (= var3740376 var82911))
(assert (= temp13918_44 #x0000000000000000))
(assert (= var3740377 temp13918_44))
(assert (= temp13918_45 #x0000000000000002))
(assert (= var69143 temp13918_45))
(assert (= temp13918_47 #x0000000000000001))
(assert (= temp13918_46 temp13918_47))
(assert (= temp13918_49 #x0000000000000001))
(assert (= temp13918_48 temp13918_49))
(assert (= temp13918_51 #x0000000000000003))
(assert (= temp13918_50 temp13918_51))
(assert (= temp13918_52 #x0000000000000001))
(assert (= var4212949 temp13918_52))
(assert (= var4212950 var69143))
(assert (= temp13918_54 #x0000000000000001))
(assert (= temp13918_53 temp13918_54))
(assert (= temp13918_56 #x0000000000000001))
(assert (= temp13918_55 temp13918_56))
(assert (= temp13918_58 #x0000000000000001))
(assert (= temp13918_57 temp13918_58))
(assert (= temp13918_60 #x0000000000000001))
(assert (= temp13918_59 temp13918_60))
(assert (= temp13918_62 #x0000000000000000))
(assert (= temp13918_61 temp13918_62))
(assert (= temp13918_64 #x0000000000000001))
(assert (= temp13918_63 temp13918_64))
(assert (= var4868391 var69143))
(assert (= temp13918_65 #x0000000000000002))
(assert (= var4983962 temp13918_65))
(assert (= temp13918_67 #x0000000000000001))
(assert (= temp13918_66 temp13918_67))
(assert (= temp13918_69 #x0000000000000001))
(assert (= temp13918_68 temp13918_69))
(assert (= var5453295 var65913))
(assert (= temp13918_71 #x0000000000000001))
(assert (= temp13918_70 temp13918_71))
(assert (= temp13918_73 #x0000000000000001))
(assert (= temp13918_72 temp13918_73))
(assert (= temp13918_75 #x0000000000000001))
(assert (= temp13918_74 temp13918_75))
(assert (= temp13918_77 #x0000000000000001))
(assert (= temp13918_76 temp13918_77))
(assert (= temp13918_79 #x0000000000000000))
(assert (= temp13918_78 temp13918_79))
(assert (= temp13918_81 #x0000000000000001))
(assert (= temp13918_80 temp13918_81))
(assert (= var6375719 var69143))
(assert (= temp13918_82 #x0000000000000000))
(assert (= var83534
   (ite (= ARGNAME_center_NAMEEND temp13918_82)
        #x0000000000000001
        #x0000000000000000)))
(assert (= temp13918_83 #x0000000000000000))
(assert (= var83534 temp13918_83))
(assert (= temp13918_84 #x0000000000000002))
(assert (= var83537 (bvsdiv ARGNAME_n_fft_NAMEEND temp13918_84)))
(assert (= var83540 var83537))
(assert (= temp13918_85 #x0000000000000000))
(assert (= var6506834
   (ite (= ARGNAME_center_NAMEEND temp13918_85)
        #x0000000000000001
        #x0000000000000000)))
(assert (= temp13918_86 #x0000000000000000))
(assert (= var6506834 temp13918_86))
(assert (= temp13918_87 #xfffffffffffffffe))
(assert (= var6506839 (bvsdiv ARGNAME_n_fft_NAMEEND temp13918_87)))
(assert (= var6506845 var6506839))
(assert (= var6506816 var6506845))
(assert (= var83557 var6506816))
(assert (= var6753268 var69143))
(assert (= temp13918_88 #x0000000000000001))
(assert (= var6753272 temp13918_88))
(assert (= temp13918_89 #x0000000000000000))
(assert (= var6753322 temp13918_89))
(assert (= temp13918_90 #x0000000000000000))
(assert (= var6753322 temp13918_90))
(assert (= var7670772 var69143))
(assert (= temp13918_91 #x0000000000000001))
(assert (= var7670776 temp13918_91))
(assert (= temp13918_92 #x0000000000000000))
(assert (= var7670814 temp13918_92))
(assert (= temp13918_93 #x0000000000000000))
(assert (= var7670826 temp13918_93))
(assert (= temp13918_94 #x0000000000000000))
(assert (= var7670826 temp13918_94))
(assert (= temp13918_95 #x0000000000000000))
(assert (= var7670814 temp13918_95))
(assert (= temp13918_96 #x0000000000000001))
(assert (= var8866087 temp13918_96))
(assert (= var83931 var83557))
(assert (= var83975 var83557))
(assert (= temp13918_97 #x0000000000000000))
(assert (= var9178266 temp13918_97))
(model-add temp13918_1 () (_ BitVec 64) #x0000000000000002)
(model-add var81157
           ()
           (_ BitVec 64)
           (bvashr ARGNAME_n_fft_NAMEEND #x0000000000000002))
(model-add temp13918_2 () (_ BitVec 64) #x0000000000000000)
(model-add var1050945 () (_ BitVec 64) #x0000000000000000)
(model-add temp13918_3 () (_ BitVec 64) #xffffffffffffffff)
(model-add var67312 () (_ BitVec 64) #xffffffffffffffff)
(model-add temp13918_4 () (_ BitVec 64) #x0000000000000002)
(model-add var81838
           ()
           (_ BitVec 64)
           (bvsdiv_i ARGNAME_n_fft_NAMEEND #x0000000000000002))
(model-add temp13918_5 () (_ BitVec 64) #x0000000000000001)
(model-add var81839
           ()
           (_ BitVec 64)
           (bvadd #x0000000000000001
                  (bvsdiv_i ARGNAME_n_fft_NAMEEND #x0000000000000002)))
(model-add temp13918_6 () (_ BitVec 64) #x0000000000000001)
(model-add var82185
           ()
           (_ BitVec 64)
           (ite (bvsle #x0000000000000001 ARGNAME_hop_length_NAMEEND)
                #x0000000000000000
                #x0000000000000001))
(model-add var82186
           ()
           (_ BitVec 64)
           (ite (bvsle ARGNAME_hop_length_NAMEEND null)
                #x0000000000000000
                #x0000000000000001))
(model-add temp13918_7 () (_ BitVec 64) #x0000000000000000)
(model-add var82187 () (_ BitVec 64) #x0000000000000000)
(model-del k!0)
(model-add null
           ()
           (_ BitVec 64)
           (ite (or k!0 (= ARGNAME_hop_length_NAMEEND #x8000000000000000))
                ARGNAME_hop_length_NAMEEND
                (bvsub ARGNAME_hop_length_NAMEEND #x0000000000000001)))




